Tercer Entrega/Parte B/parteb.log
GLPSOL: GLPK LP/MIP Solver, v4.65
Parameter(s) specified in the command line:
 -m parteb.mod -o parteb.sol --log parteb.log --ranges parteb.range --display
 parteb.display
Reading model section from parteb.mod...
10 lines were read
Generating z...
Generating disp_metal...
Generating disp_plastico...
Generating disp_trabajo_operario...
Generating demanda_cort...
Generating demanda_av...
Model has been successfully generated
GLPK Simplex Optimizer, v4.65
6 rows, 3 columns, 12 non-zeros
Preprocessing...
~     0: obj =   1.900000000e+04  infeas =  0.000e+00
OPTIMAL SOLUTION FOUND BY LP PREPROCESSOR
Time used:   0.0 secs
Memory used: 0.1 Mb (102529 bytes)
Writing basic solution to 'parteb.sol'...
Write sensitivity analysis report to 'parteb.range'...
